(set-info :status sat)
(declare-const symbol_35 (_ BitVec 32))
(declare-const symbol_42 (_ BitVec 32))
(declare-const symbol_17 (_ BitVec 32))
(declare-const symbol_33 (_ BitVec 32))
(declare-const symbol_10 (_ BitVec 32))
(declare-const symbol_26 (_ BitVec 32))
(declare-const symbol_29 (_ BitVec 32))
(declare-const symbol_0 (_ BitVec 32))
(declare-const symbol_9 (_ BitVec 32))
(declare-const symbol_44 (_ BitVec 32))
(declare-const symbol_16 (_ BitVec 32))
(declare-const symbol_3 (_ BitVec 32))
(declare-const symbol_14 (_ BitVec 32))
(declare-const symbol_24 (_ BitVec 32))
(declare-const symbol_1 (_ BitVec 32))
(declare-const symbol_22 (_ BitVec 32))
(declare-const symbol_41 (_ BitVec 32))
(declare-const symbol_37 (_ BitVec 32))
(declare-const symbol_31 (_ BitVec 32))
(declare-const symbol_20 (_ BitVec 32))
(declare-const symbol_7 (_ BitVec 32))
(declare-const symbol_39 (_ BitVec 32))
(declare-const symbol_12 (_ BitVec 32))
(declare-const symbol_5 (_ BitVec 32))
(assert (not (= symbol_44 (_ bv4 32))))
(assert (not (not (= symbol_42 (_ bv4 32)))))
(assert (not (not (= symbol_41 (_ bv4 32)))))
(assert (not (not (= symbol_39 (_ bv4 32)))))
(assert (not (not (= symbol_37 (_ bv4 32)))))
(assert (not (not (= symbol_35 (_ bv4 32)))))
(assert (not (not (= symbol_33 (_ bv4 32)))))
(assert (not (not (= symbol_31 (_ bv4 32)))))
(assert (not (not (= symbol_29 (_ bv4 32)))))
(assert (not (not (= symbol_26 (_ bv4 32)))))
(assert (not (not (= symbol_24 (_ bv4 32)))))
(assert (not (not (= symbol_22 (_ bv4 32)))))
(assert (not (not (= symbol_20 (_ bv4 32)))))
(assert (not (not (= symbol_17 (_ bv4 32)))))
(assert (not (not (= symbol_16 (_ bv4 32)))))
(assert (not (not (= symbol_14 (_ bv4 32)))))
(assert (not (not (= symbol_12 (_ bv4 32)))))
(assert (not (not (= symbol_10 (_ bv4 32)))))
(assert (not (not (= symbol_9 (_ bv4 32)))))
(assert (not (not (= symbol_7 (_ bv4 32)))))
(assert (not (not (= symbol_5 (_ bv4 32)))))
(assert (not (not (= symbol_3 (_ bv4 32)))))
(assert (not (not (= symbol_1 (_ bv4 32)))))
(assert (not (not (= symbol_0 (_ bv4 32)))))
(check-sat)